Maximize
    4 x + 7 y
Subject To
    c1: 7 x + 13 y <= 182
    c2: 5 x + 3 y <= 60
Bounds
    x >= 0
    y >= 0
End
'''


Mathematical Optimization of Profit
The Shop Problem
Example Linear Programming Problem
James Gaboardi, MSGISci
8/2015

This .lp file can be read into a solver (CPLEX, Gurobi, etc.)

x = Product 1
y = Product 2

$9 for each unit of [x] and $7 for each unit of [y]

Constraint 1 = Machine 1 time (hrs.)
Constraint 2 = Machine 2 time (hrs.)
Constraint 3 = Machine 3 time (hrs.)


Originally Published:
    Cohen, S. S.
    1985
    Operational Researh
    London, UK
    Edward Arnold Publishers